JulietBench/Juliet_Based_Patch_Bench/linux/CWE-189-Numeric-Errors/CVE_2011_2208_21c5977a836e399fc710ff2c5367845ed5c2527f/ResultSYSCALL_DEFINE3_Snippet_patch1EQ.smt2
; benchmark generated from python API
(set-info :status unknown)
(declare-fun rdi () (_ BitVec 64))
(declare-fun R () (_ BitVec 32))
(declare-fun rsi () (_ BitVec 64))
(assert
 (let ((?x76 ((_ extract 31 0) rdi)))
 (let (($x77 (= R ?x76)))
 (let (($x44 (bvule rdi rsi)))
 (let (($x81 (and $x44 $x77)))
 (let ((?x67 ((_ extract 31 0) rsi)))
 (let (($x74 (= R ?x67)))
 (let (($x61 (bvugt rdi rsi)))
 (let (($x80 (and $x61 $x74)))
 (let (($x82 (or $x80 $x81)))
 (let (($x15 (bvsle rdi rsi)))
 (let (($x78 (and $x15 $x77)))
 (let (($x38 (bvsgt rdi rsi)))
 (let (($x75 (and $x38 $x74)))
 (let (($x79 (or $x75 $x78)))
 (and $x79 $x82))))))))))))))))
(check-sat)
